generated by phonopy                    
   1.00000000000000     
     6.8834957833423163    0.0000000000000000    0.0000000000000000
    -3.4417478916711577    5.9612822152175085    0.0000000000000000
     0.0000000000000000    0.0000000000000000   16.0000000000000000
  N_GW/fd1d2aa6a
              18
Direct
  0.2222222222222214  0.1111111111111143  0.4782218539462590
  0.5555555555555571  0.1111111111111143  0.4782218539462590
  0.8888888888888857  0.1111111111111143  0.4782218539462590
  0.2222222222222214  0.4444444444444429  0.4782218539462590
  0.5555555555555571  0.4444444444444429  0.4782218539462590
  0.8888888888888857  0.4444444444444429  0.4782218539462590
  0.2222222222222214  0.7777777777777786  0.4782218539462590
  0.5555555555555571  0.7777777777777786  0.4782218539462590
  0.8888888888888857  0.7777777777777786  0.4782218539462590
  0.1111111111111143  0.2222222222222214  0.5217781460537410
  0.4444444444444429  0.2222222222222214  0.5217781460537410
  0.7777777777777786  0.2222222222222214  0.5217781460537410
  0.1111111111111143  0.5555555555555571  0.5217781460537410
  0.4444444444444429  0.5555555555555571  0.5217781460537410
  0.7777777777777786  0.5555555555555571  0.5217781460537410
  0.1111111111111143  0.8888888888888857  0.5217781460537410
  0.4444444444444429  0.8888888888888857  0.5217781460537410
  0.7777777777777786  0.8888888888888857  0.5217781460537410
 
  0.00000000E+00  0.00000000E+00  0.00000000E+00
  0.00000000E+00  0.00000000E+00  0.00000000E+00
  0.00000000E+00  0.00000000E+00  0.00000000E+00
  0.00000000E+00  0.00000000E+00  0.00000000E+00
  0.00000000E+00  0.00000000E+00  0.00000000E+00
  0.00000000E+00  0.00000000E+00  0.00000000E+00
  0.00000000E+00  0.00000000E+00  0.00000000E+00
  0.00000000E+00  0.00000000E+00  0.00000000E+00
  0.00000000E+00  0.00000000E+00  0.00000000E+00
  0.00000000E+00  0.00000000E+00  0.00000000E+00
  0.00000000E+00  0.00000000E+00  0.00000000E+00
  0.00000000E+00  0.00000000E+00  0.00000000E+00
  0.00000000E+00  0.00000000E+00  0.00000000E+00
  0.00000000E+00  0.00000000E+00  0.00000000E+00
  0.00000000E+00  0.00000000E+00  0.00000000E+00
  0.00000000E+00  0.00000000E+00  0.00000000E+00
  0.00000000E+00  0.00000000E+00  0.00000000E+00
  0.00000000E+00  0.00000000E+00  0.00000000E+00
