kpoints along symmetry lines
50
Line-mode
rec 
   0.0000000000     0.0000000000     0.0000000000     G
   0.6666666667    -0.3333333333     0.0000000000     K
   
   0.6666666667    -0.3333333333     0.0000000000     K  
   0.3333333333     0.3333333333     0.0000000000     K'
   
   0.3333333333     0.3333333333     0.0000000000     K'
   0.0000000000     0.0000000000     0.0000000000     G
