pnictogen honeycomb monolayer           
   1.00000000000000     
     4.1133665496711673    0.0000000000000000    0.0000000000000000
    -2.0566832748355837    3.5622799270923751    0.0000000000000000
     0.0000000000000000    0.0000000000000000   16.0000000000000000
  Sb
               2
Direct
  0.6666666666666643  0.3333333333333357  0.4486253983738564
  0.3333333333333357  0.6666666666666643  0.5513746016261436
 
  0.00000000E+00  0.00000000E+00  0.00000000E+00
  0.00000000E+00  0.00000000E+00  0.00000000E+00
