pnictogen honeycomb monolayer           
   1.00000000000000     
     3.2823434942051457    0.0000000000000000    0.0000000000000000
    -1.6411717471025726    2.8425928499282360    0.0000000000000000
     0.0000000000000000    0.0000000000000000   16.0000000000000000
  P_GW/715c28f22
               2
Direct
  0.6666666666666643  0.3333333333333357  0.4611828390103057
  0.3333333333333357  0.6666666666666643  0.5388171609896943
 
  0.00000000E+00  0.00000000E+00  0.00000000E+00
  0.00000000E+00  0.00000000E+00  0.00000000E+00
