generated by phonopy
   1.0
    10.8206776168888776    0.0000000000000000    0.0000000000000000
    -5.4103388084444379    9.3709817023874251    0.0000000000000000
     0.0000000000000000    0.0000000000000000   16.0000000000000000
H
  18
Direct
  0.2217045022676229  0.1111111111111119  0.4558254156545470
  0.5555555555555547  0.1111111111111119  0.4563431356091456
  0.8888888888888880  0.1111111111111119  0.4563431356091456
  0.2222222222222214  0.4444444444444452  0.4563431356091456
  0.5555555555555546  0.4444444444444452  0.4563431356091456
  0.8888888888888880  0.4444444444444452  0.4563431356091456
  0.2222222222222214  0.7777777777777786  0.4563431356091456
  0.5555555555555547  0.7777777777777786  0.4563431356091456
  0.8888888888888880  0.7777777777777786  0.4563431356091456
  0.1111111111111119  0.2222222222222214  0.5436568643908544
  0.4444444444444452  0.2222222222222214  0.5436568643908544
  0.7777777777777787  0.2222222222222214  0.5436568643908544
  0.1111111111111119  0.5555555555555547  0.5436568643908544
  0.4444444444444452  0.5555555555555547  0.5436568643908544
  0.7777777777777786  0.5555555555555547  0.5436568643908544
  0.1111111111111119  0.8888888888888882  0.5436568643908544
  0.4444444444444452  0.8888888888888882  0.5436568643908544
  0.7777777777777786  0.8888888888888882  0.5436568643908544
