OUTCAR.0003.+1.out 1.0e-02              
   1.00000000000000     
     3.2823434942051457    0.0000000000000000    0.0000000000000000
    -1.6411717471025726    2.8425928499282360    0.0000000000000000
     0.0000000000000000    0.0000000000000000   16.0000000000000000
  P_GW/715c28f22
               2
Direct
  0.6673104764205675  0.3315743660312762  0.4611828390125012
  0.3326895235736842  0.6684256339587904  0.5388171609874988
 
  0.00000000E+00  0.00000000E+00  0.00000000E+00
  0.00000000E+00  0.00000000E+00  0.00000000E+00
