OUTCAR.0003.+1.out 1.0e-02 
   1.00000000000000     
     3.2823434942051457    0.0000000000000000    0.0000000000000000
    -1.6411717471025726    2.8425928499282360    0.0000000000000000
     0.0000000000000000    0.0000000000000000   16.0000000000000000
  P
               2
Cartesian
   1.6461717193    0.9425309221    7.3789254242
  -0.0049999722    1.9000619278    8.6210745758
