OUTCAR.0003.+1.out 1.0e-02              
   1.00000000000000     
     3.6068925389629594    0.0000000000000000    0.0000000000000000
    -1.8034462694814795    3.1236605674624749    0.0000000000000000
     0.0000000000000000    0.0000000000000000   16.0000000000000000
  As_GW/a9e2ff09
               2
Direct
  0.6686270987473577  0.3333333333480084  0.4563431356062466
  0.3313729012637836  0.6666666666640069  0.5436568643937534
 
  0.00000000E+00  0.00000000E+00  0.00000000E+00
  0.00000000E+00  0.00000000E+00  0.00000000E+00
