OUTCAR.0003.+1.out 1.0e-02 
   1.00000000000000     
     3.6068925389629594    0.0000000000000000    0.0000000000000000
    -1.8034462694814795    3.1236605674624749    0.0000000000000000
     0.0000000000000000    0.0000000000000000   16.0000000000000000
  As
               2
Cartesian
   1.8105173373    1.0412201892    7.3014901697
  -0.0070710678    2.0824403783    8.6985098303
