OUTCAR.0003.+1.out 1.0e-02              
   1.00000000000000     
     4.1133665496711673    0.0000000000000000    0.0000000000000000
    -2.0566832748355837    3.5622799270923751    0.0000000000000000
     0.0000000000000000    0.0000000000000000   16.0000000000000000
  Sb_GW/0189e04b
               2
Direct
  0.6649724513380662  0.3333819634633102  0.4486253983750004
  0.3350275486786671  0.6666180365388286  0.5513746016249996
 
  0.00000000E+00  0.00000000E+00  0.00000000E+00
  0.00000000E+00  0.00000000E+00  0.00000000E+00
