OUTCAR.0003.+1.out 1.0e-02 
   1.00000000000000     
     4.1133665496711673    0.0000000000000000    0.0000000000000000
    -2.0566832748355837    3.5622799270923751    0.0000000000000000
     0.0000000000000000    0.0000000000000000   16.0000000000000000
  Sb
               2
Cartesian
   2.0496143294    1.1875998765    7.1780063740
   0.0070689455    2.3746800506    8.8219936260
