generated by phonopy
   1.0
     6.8834957833423163    0.0000000000000000    0.0000000000000000
    -3.4417478916711577    5.9612822152175085    0.0000000000000000
     0.0000000000000000    0.0000000000000000   16.0000000000000000
H
  18
Direct
  0.2227963449332577  0.1111111111111119  0.4787959766572952
  0.5555555555555547  0.1111111111111119  0.4782218539462590
  0.8888888888888882  0.1111111111111119  0.4782218539462590
  0.2222222222222214  0.4444444444444452  0.4782218539462590
  0.5555555555555548  0.4444444444444452  0.4782218539462590
  0.8888888888888881  0.4444444444444452  0.4782218539462590
  0.2222222222222215  0.7777777777777787  0.4782218539462590
  0.5555555555555548  0.7777777777777787  0.4782218539462590
  0.8888888888888882  0.7777777777777787  0.4782218539462590
  0.1111111111111119  0.2222222222222214  0.5217781460537410
  0.4444444444444452  0.2222222222222214  0.5217781460537410
  0.7777777777777786  0.2222222222222214  0.5217781460537410
  0.1111111111111119  0.5555555555555547  0.5217781460537410
  0.4444444444444452  0.5555555555555547  0.5217781460537410
  0.7777777777777786  0.5555555555555547  0.5217781460537410
  0.1111111111111120  0.8888888888888882  0.5217781460537410
  0.4444444444444453  0.8888888888888882  0.5217781460537410
  0.7777777777777786  0.8888888888888882  0.5217781460537410
