OUTCAR.0003.+1.out 1.0e-02              
   1.00000000000000     
     2.2944985944474388    0.0000000000000000    0.0000000000000000
    -1.1472492972237192    1.9870940717391694    0.0000000000000000
     0.0000000000000000    0.0000000000000000   16.0000000000000000
  N_GW/fd1d2aa6a
               2
Direct
  0.6677615074612291  0.3368130168664933  0.4782218539437508
  0.3322384925185773  0.6631869831137891  0.5217781460562492
 
  0.00000000E+00  0.00000000E+00  0.00000000E+00
  0.00000000E+00  0.00000000E+00  0.00000000E+00
