OUTCAR.0003.+1.out 1.0e-02 
   1.00000000000000     
     2.2944985944474388    0.0000000000000000    0.0000000000000000
    -1.1472492972237192    1.9870940717391694    0.0000000000000000
     0.0000000000000000    0.0000000000000000   16.0000000000000000
  N
               2
Cartesian
   1.1457693434    0.6692791491    7.6515496631
   0.0014799538    1.3178149226    8.3484503369
