generated by phonopy                    
   1.00000000000000     
     9.8470304826154376    0.0000000000000000    0.0000000000000000
    -4.9235152413077179    8.5277785497847081    0.0000000000000000
     0.0000000000000000    0.0000000000000000   16.0000000000000000
  P_GW/715c28f22
              18
Direct
  0.2222222222222214  0.1111111111111143  0.4611828390103057
  0.5555555555555571  0.1111111111111143  0.4611828390103057
  0.8888888888888857  0.1111111111111143  0.4611828390103057
  0.2222222222222214  0.4444444444444429  0.4611828390103057
  0.5555555555555571  0.4444444444444429  0.4611828390103057
  0.8888888888888857  0.4444444444444429  0.4611828390103057
  0.2222222222222214  0.7777777777777786  0.4611828390103057
  0.5555555555555571  0.7777777777777786  0.4611828390103057
  0.8888888888888857  0.7777777777777786  0.4611828390103057
  0.1111111111111143  0.2222222222222214  0.5388171609896943
  0.4444444444444429  0.2222222222222214  0.5388171609896943
  0.7777777777777786  0.2222222222222214  0.5388171609896943
  0.1111111111111143  0.5555555555555571  0.5388171609896943
  0.4444444444444429  0.5555555555555571  0.5388171609896943
  0.7777777777777786  0.5555555555555571  0.5388171609896943
  0.1111111111111143  0.8888888888888857  0.5388171609896943
  0.4444444444444429  0.8888888888888857  0.5388171609896943
  0.7777777777777786  0.8888888888888857  0.5388171609896943
 
  0.00000000E+00  0.00000000E+00  0.00000000E+00
  0.00000000E+00  0.00000000E+00  0.00000000E+00
  0.00000000E+00  0.00000000E+00  0.00000000E+00
  0.00000000E+00  0.00000000E+00  0.00000000E+00
  0.00000000E+00  0.00000000E+00  0.00000000E+00
  0.00000000E+00  0.00000000E+00  0.00000000E+00
  0.00000000E+00  0.00000000E+00  0.00000000E+00
  0.00000000E+00  0.00000000E+00  0.00000000E+00
  0.00000000E+00  0.00000000E+00  0.00000000E+00
  0.00000000E+00  0.00000000E+00  0.00000000E+00
  0.00000000E+00  0.00000000E+00  0.00000000E+00
  0.00000000E+00  0.00000000E+00  0.00000000E+00
  0.00000000E+00  0.00000000E+00  0.00000000E+00
  0.00000000E+00  0.00000000E+00  0.00000000E+00
  0.00000000E+00  0.00000000E+00  0.00000000E+00
  0.00000000E+00  0.00000000E+00  0.00000000E+00
  0.00000000E+00  0.00000000E+00  0.00000000E+00
  0.00000000E+00  0.00000000E+00  0.00000000E+00
