generated by phonopy
   1.0
     9.8470304826154376    0.0000000000000000    0.0000000000000000
    -4.9235152413077179    8.5277785497847081    0.0000000000000000
     0.0000000000000000    0.0000000000000000   16.0000000000000000
H
  18
Direct
  0.2222222222222214  0.1111111111111119  0.4611828390103057
  0.5555555555555547  0.1111111111111119  0.4611828390103057
  0.8888888888888881  0.1111111111111119  0.4611828390103057
  0.2222222222222214  0.4444444444444452  0.4611828390103057
  0.5555555555555547  0.4444444444444452  0.4611828390103057
  0.8888888888888881  0.4444444444444452  0.4611828390103057
  0.2222222222222214  0.7777777777777786  0.4611828390103057
  0.5555555555555547  0.7777777777777786  0.4611828390103057
  0.8888888888888881  0.7777777777777786  0.4611828390103057
  0.1111111111111119  0.2222222222222214  0.5388171609896943
  0.4444444444444452  0.2222222222222214  0.5388171609896943
  0.7777777777777786  0.2222222222222214  0.5388171609896943
  0.1111111111111119  0.5555555555555547  0.5388171609896943
  0.4444444444444452  0.5555555555555547  0.5388171609896943
  0.7777777777777786  0.5555555555555547  0.5388171609896943
  0.1111111111111119  0.8888888888888881  0.5388171609896943
  0.4444444444444452  0.8888888888888881  0.5388171609896943
  0.7777777777777786  0.8888888888888881  0.5388171609896943
