generated by phonopy                    
   1.00000000000000     
    12.3400996490135029    0.0000000000000000    0.0000000000000000
    -6.1700498245067514   10.6868397812771256    0.0000000000000000
     0.0000000000000000    0.0000000000000000   16.0000000000000000
  Sb_GW/0189e04b
              18
Direct
  0.2222222222222214  0.1111111111111143  0.4486253983738564
  0.5555555555555571  0.1111111111111143  0.4486253983738564
  0.8888888888888857  0.1111111111111143  0.4486253983738564
  0.2222222222222214  0.4444444444444429  0.4486253983738564
  0.5555555555555571  0.4444444444444429  0.4486253983738564
  0.8888888888888857  0.4444444444444429  0.4486253983738564
  0.2222222222222214  0.7777777777777786  0.4486253983738564
  0.5555555555555571  0.7777777777777786  0.4486253983738564
  0.8888888888888857  0.7777777777777786  0.4486253983738564
  0.1111111111111143  0.2222222222222214  0.5513746016261436
  0.4444444444444429  0.2222222222222214  0.5513746016261436
  0.7777777777777786  0.2222222222222214  0.5513746016261436
  0.1111111111111143  0.5555555555555571  0.5513746016261436
  0.4444444444444429  0.5555555555555571  0.5513746016261436
  0.7777777777777786  0.5555555555555571  0.5513746016261436
  0.1111111111111143  0.8888888888888857  0.5513746016261436
  0.4444444444444429  0.8888888888888857  0.5513746016261436
  0.7777777777777786  0.8888888888888857  0.5513746016261436
 
  0.00000000E+00  0.00000000E+00  0.00000000E+00
  0.00000000E+00  0.00000000E+00  0.00000000E+00
  0.00000000E+00  0.00000000E+00  0.00000000E+00
  0.00000000E+00  0.00000000E+00  0.00000000E+00
  0.00000000E+00  0.00000000E+00  0.00000000E+00
  0.00000000E+00  0.00000000E+00  0.00000000E+00
  0.00000000E+00  0.00000000E+00  0.00000000E+00
  0.00000000E+00  0.00000000E+00  0.00000000E+00
  0.00000000E+00  0.00000000E+00  0.00000000E+00
  0.00000000E+00  0.00000000E+00  0.00000000E+00
  0.00000000E+00  0.00000000E+00  0.00000000E+00
  0.00000000E+00  0.00000000E+00  0.00000000E+00
  0.00000000E+00  0.00000000E+00  0.00000000E+00
  0.00000000E+00  0.00000000E+00  0.00000000E+00
  0.00000000E+00  0.00000000E+00  0.00000000E+00
  0.00000000E+00  0.00000000E+00  0.00000000E+00
  0.00000000E+00  0.00000000E+00  0.00000000E+00
  0.00000000E+00  0.00000000E+00  0.00000000E+00
