pnictogen honeycomb monolayer           
   1.00000000000000     
     2.2944985944474388    0.0000000000000000    0.0000000000000000
    -1.1472492972237192    1.9870940717391694    0.0000000000000000
     0.0000000000000000    0.0000000000000000   16.0000000000000000
  N_GW/fd1d2aa6a
               2
Direct
  0.6666666666666643  0.3333333333333357  0.4782218539462590
  0.3333333333333357  0.6666666666666643  0.5217781460537410
 
  0.00000000E+00  0.00000000E+00  0.00000000E+00
  0.00000000E+00  0.00000000E+00  0.00000000E+00
