pnictogen honeycomb monolayer           
   1.00000000000000     
     4.1133666039000003    0.0000000000000000    0.0000000000000000
    -2.0566833019000001    3.5622799740000000    0.0000000000000000
     0.0000000000000000    0.0000000000000000   24.0000000000000000
  Sb_GW/0189e04b
               2
Direct
  0.6666666864170594  0.3333333431585004  0.2990835904999969
  0.3333333432907608  0.6666666865977220  0.3675830761666674
 
  0.00000000E+00  0.00000000E+00  0.00000000E+00
  0.00000000E+00  0.00000000E+00  0.00000000E+00
