pnictogen honeycomb monolayer           
1.0
        4.1133666039         0.0000000000         0.0000000000
       -2.0566833019         3.5622799740         0.0000000000
        0.0000000000         0.0000000000        24.0000000000
   Sb
    2
Cartesian
     2.056683363         1.187426693         7.178006172
     0.000000000         2.374853387         8.821993828
