pnictogen honeycomb monolayer           
   1.00000000000000     
     2.2944986820000000    0.0000000000000000    0.0000000000000000
    -1.1472493410000000    1.9870941475999999    0.0000000000000000
     0.0000000000000000    0.0000000000000000   24.0000000000000000
  N_GW/fd1d2aa6a
               2
Direct
  0.6666666865507409  0.3333333434653838  0.3188145756666643
  0.3333333432137593  0.6666666864275186  0.3478521108750030
 
  0.00000000E+00  0.00000000E+00  0.00000000E+00
  0.00000000E+00  0.00000000E+00  0.00000000E+00
