pnictogen honeycomb monolayer           
1.0
        2.2944986820         0.0000000000         0.0000000000
       -1.1472493410         1.9870941476         0.0000000000
        0.0000000000         0.0000000000        24.0000000000
    N
    2
Cartesian
     1.147249375         0.662364736         7.651549816
     0.000000000         1.324729471         8.348450661
