generated by phonopy                    
   1.00000000000000     
    10.8206776168888776    0.0000000000000000    0.0000000000000000
    -5.4103388084444379    9.3709817023874251    0.0000000000000000
     0.0000000000000000    0.0000000000000000   16.0000000000000000
  As_GW/a9e2ff09
              18
Direct
  0.2222222222222214  0.1111111111111143  0.4563431356091456
  0.5555555555555571  0.1111111111111143  0.4563431356091456
  0.8888888888888857  0.1111111111111143  0.4563431356091456
  0.2222222222222214  0.4444444444444429  0.4563431356091456
  0.5555555555555571  0.4444444444444429  0.4563431356091456
  0.8888888888888857  0.4444444444444429  0.4563431356091456
  0.2222222222222214  0.7777777777777786  0.4563431356091456
  0.5555555555555571  0.7777777777777786  0.4563431356091456
  0.8888888888888857  0.7777777777777786  0.4563431356091456
  0.1111111111111143  0.2222222222222214  0.5436568643908544
  0.4444444444444429  0.2222222222222214  0.5436568643908544
  0.7777777777777786  0.2222222222222214  0.5436568643908544
  0.1111111111111143  0.5555555555555571  0.5436568643908544
  0.4444444444444429  0.5555555555555571  0.5436568643908544
  0.7777777777777786  0.5555555555555571  0.5436568643908544
  0.1111111111111143  0.8888888888888857  0.5436568643908544
  0.4444444444444429  0.8888888888888857  0.5436568643908544
  0.7777777777777786  0.8888888888888857  0.5436568643908544
 
  0.00000000E+00  0.00000000E+00  0.00000000E+00
  0.00000000E+00  0.00000000E+00  0.00000000E+00
  0.00000000E+00  0.00000000E+00  0.00000000E+00
  0.00000000E+00  0.00000000E+00  0.00000000E+00
  0.00000000E+00  0.00000000E+00  0.00000000E+00
  0.00000000E+00  0.00000000E+00  0.00000000E+00
  0.00000000E+00  0.00000000E+00  0.00000000E+00
  0.00000000E+00  0.00000000E+00  0.00000000E+00
  0.00000000E+00  0.00000000E+00  0.00000000E+00
  0.00000000E+00  0.00000000E+00  0.00000000E+00
  0.00000000E+00  0.00000000E+00  0.00000000E+00
  0.00000000E+00  0.00000000E+00  0.00000000E+00
  0.00000000E+00  0.00000000E+00  0.00000000E+00
  0.00000000E+00  0.00000000E+00  0.00000000E+00
  0.00000000E+00  0.00000000E+00  0.00000000E+00
  0.00000000E+00  0.00000000E+00  0.00000000E+00
  0.00000000E+00  0.00000000E+00  0.00000000E+00
  0.00000000E+00  0.00000000E+00  0.00000000E+00
