pnictogen honeycomb monolayer           
   1.00000000000000     
     4.3324293843954740    0.0000000000000000    0.0000000000000000
    -2.1662146921977370    3.7519939069886559    0.0000000000000000
     0.0000000000000000    0.0000000000000000   16.0000000000000000
  Bi_GW/2ba5acbf
               2
Direct
  0.6666666666666643  0.3333333333333357  0.4457058838809758
  0.3333333333333357  0.6666666666666643  0.5542941161190242
 
  0.00000000E+00  0.00000000E+00  0.00000000E+00
  0.00000000E+00  0.00000000E+00  0.00000000E+00
