generated by phonopy
   1.0
    12.3400996490135029    0.0000000000000000    0.0000000000000000
    -6.1700498245067514   10.6868397812771256    0.0000000000000000
     0.0000000000000000    0.0000000000000000   16.0000000000000000
H
  18
Direct
  0.2227171273790449  0.1111111111111119  0.4491203035306798
  0.5555555555555546  0.1111111111111119  0.4486253983738564
  0.8888888888888880  0.1111111111111119  0.4486253983738564
  0.2222222222222215  0.4444444444444453  0.4486253983738564
  0.5555555555555547  0.4444444444444453  0.4486253983738564
  0.8888888888888881  0.4444444444444453  0.4486253983738564
  0.2222222222222215  0.7777777777777787  0.4486253983738564
  0.5555555555555547  0.7777777777777787  0.4486253983738564
  0.8888888888888882  0.7777777777777787  0.4486253983738564
  0.1111111111111119  0.2222222222222215  0.5513746016261436
  0.4444444444444451  0.2222222222222215  0.5513746016261436
  0.7777777777777786  0.2222222222222215  0.5513746016261436
  0.1111111111111119  0.5555555555555548  0.5513746016261436
  0.4444444444444453  0.5555555555555548  0.5513746016261436
  0.7777777777777786  0.5555555555555548  0.5513746016261436
  0.1111111111111119  0.8888888888888882  0.5513746016261436
  0.4444444444444452  0.8888888888888882  0.5513746016261436
  0.7777777777777786  0.8888888888888882  0.5513746016261436
