pnictogen honeycomb monolayer           
   1.00000000000000     
     3.6068925389629594    0.0000000000000000    0.0000000000000000
    -1.8034462694814795    3.1236605674624749    0.0000000000000000
     0.0000000000000000    0.0000000000000000   16.0000000000000000
  As_GW/a9e2ff09
               2
Direct
  0.6666666666666643  0.3333333333333357  0.4563431356091456
  0.3333333333333357  0.6666666666666643  0.5436568643908544
 
  0.00000000E+00  0.00000000E+00  0.00000000E+00
  0.00000000E+00  0.00000000E+00  0.00000000E+00
