pnictogen honeycomb monolayer           
   1.00000000000000     
     3.2823433876000001    0.0000000000000000    0.0000000000000000
    -1.6411716938000001    2.8425927575999999    0.0000000000000000
     0.0000000000000000    0.0000000000000000   24.0000000000000000
  P_GW/715c28f22
               2
Direct
  0.6666666865458595  0.3333333431131393  0.3074552217916633
  0.3333333432890342  0.6666666865780684  0.3592114448750010
 
  0.00000000E+00  0.00000000E+00  0.00000000E+00
  0.00000000E+00  0.00000000E+00  0.00000000E+00
