pnictogen honeycomb monolayer           
1.0
        3.2823433876         0.0000000000         0.0000000000
       -1.6411716938         2.8425927576         0.0000000000
        0.0000000000         0.0000000000        24.0000000000
    P
    2
Cartesian
     1.641171743         0.947530947         7.378925323
     0.000000000         1.895061895         8.621074677
