pnictogen honeycomb monolayer           
   1.00000000000000     
     3.6068925857999998    0.0000000000000000    0.0000000000000000
    -1.8034462928999999    3.1236606079999998    0.0000000000000000
     0.0000000000000000    0.0000000000000000   24.0000000000000000
  As_GW/a9e2ff09
               2
Direct
  0.6666666866812108  0.3333333433643020  0.3042287627916664
  0.3333333432042309  0.6666666864084618  0.3624379237500008
 
  0.00000000E+00  0.00000000E+00  0.00000000E+00
  0.00000000E+00  0.00000000E+00  0.00000000E+00
