pnictogen honeycomb monolayer           
1.0
        3.6068925858         0.0000000000         0.0000000000
       -1.8034462929         3.1236606080         0.0000000000
        0.0000000000         0.0000000000        24.0000000000
   As
    2
Cartesian
     1.803446347         1.041220234         7.301490307
     0.000000000         2.082440467         8.698510170
